<number of tasks>
70

<cycle time>
410

<task times>
1 17
2 66
3 54
4 52
5 6
6 88
7 21
8 128
9 68
10 70
11 85
12 21
13 134
14 135
15 94
16 90
17 50
18 143
19 19
20 54
21 50
22 40
23 73
24 12
25 152
26 42
27 45
28 74
29 26
30 11
31 31
32 50
33 102
34 46
35 35
36 40
37 2
38 1
39 3
40 13
41 16
42 25
43 21
44 43
45 30
46 83
47 89
48 56
49 59
50 43
51 11
52 26
53 44
54 121
55 38
56 68
57 22
58 7
59 16
60 32
61 25
62 27
63 156
64 28
65 15
66 26
67 18
68 72
69 23
70 27

<precedence relations>
1,2
1,41
1,69
1,70
2,3
3,4
3,68
4,6
4,7
5,6
5,24
5,30
6,8
7,8
8,12
9,10
10,11
11,12
12,13
12,14
13,23
14,23
15,16
16,17
16,18
17,19
18,19
19,20
19,22
19,57
20,21
21,23
22,23
23,25
23,31
23,33
24,25
25,26
25,27
25,28
25,29
26,35
27,35
28,35
29,35
30,31
31,32
32,35
33,34
34,35
35,36
35,44
35,48
35,51
35,53
35,56
35,60
35,61
35,62
36,37
37,38
38,39
39,40
40,42
41,42
42,43
43,50
44,45
45,46
46,47
47,50
48,49
49,50
51,52
52,54
53,54
54,55
57,58
58,59
59,60
61,65
62,63
63,64
64,65
64,66
64,67

<setup times forward>
1,10:10
1,11:4
1,16:10
1,17:4
1,18:4
1,19:4
1,20:4
1,21:4
1,22:4
1,41:10
1,57:4
1,58:4
1,59:4
1,69:9
1,70:4
2,10:10
2,11:4
2,16:10
2,17:4
2,18:4
2,19:4
2,20:4
2,21:4
2,22:4
2,41:10
2,57:4
2,58:4
2,59:4
2,69:9
2,70:4
3,10:10
3,11:4
3,16:10
3,17:4
3,18:4
3,19:4
3,20:4
3,21:4
3,22:4
3,41:10
3,57:4
3,58:4
3,59:4
3,69:9
3,70:4
4,6:10
4,10:10
4,11:4
4,16:10
4,17:4
4,18:4
4,19:4
4,20:4
4,21:4
4,22:4
4,41:10
4,57:4
4,58:4
4,59:4
4,69:9
4,70:4
5,6:10
5,10:10
5,11:4
5,16:10
5,17:4
5,18:4
5,19:4
5,20:4
5,21:4
5,22:4
5,41:10
5,57:4
5,58:4
5,59:4
5,69:9
5,70:4
6,7:10
6,9:10
6,11:14
6,15:10
6,17:14
6,18:14
6,19:14
6,20:14
6,21:6
6,22:6
6,24:10
6,30:10
6,57:14
6,58:14
6,59:6
6,68:10
6,69:19
6,70:6
7,6:10
7,8:10
7,10:10
7,11:4
7,16:10
7,17:4
7,18:4
7,19:4
7,20:4
7,21:4
7,22:4
7,41:10
7,57:4
7,58:4
7,59:4
7,69:9
7,70:4
8,9:10
8,11:14
8,12:14
8,15:10
8,17:14
8,18:14
8,19:14
8,20:14
8,21:6
8,22:6
8,24:10
8,30:10
8,57:14
8,58:14
8,59:6
8,68:10
8,69:19
8,70:6
9,6:10
9,8:10
9,10:10
9,16:10
9,17:4
9,18:4
9,19:4
9,20:4
9,21:4
9,22:4
9,41:10
9,57:4
9,58:4
9,59:4
9,69:9
9,70:4
10,1:10
10,2:10
10,3:10
10,4:10
10,5:10
10,7:10
10,11:14
10,15:10
10,17:14
10,18:14
10,19:14
10,20:14
10,21:6
10,22:6
10,24:10
10,30:10
10,57:14
10,58:14
10,59:6
10,68:10
10,69:19
10,70:6
11,1:4
11,2:4
11,3:4
11,4:4
11,5:4
11,6:14
11,7:4
11,8:14
11,15:4
11,16:14
11,21:8
11,22:8
11,24:4
11,30:4
11,41:14
11,59:8
11,68:4
11,69:5
11,70:8
12,13:8
12,14:8
12,15:4
12,16:14
12,21:8
12,22:8
12,24:4
12,30:4
12,41:14
12,59:8
12,68:4
12,69:5
12,70:8
13,15:4
13,16:6
13,17:8
13,18:8
13,19:8
13,20:8
13,23:1
13,24:4
13,30:4
13,41:6
13,57:8
13,58:8
13,68:4
13,69:13
14,15:4
14,16:6
14,17:8
14,18:8
14,19:8
14,20:8
14,23:1
14,24:4
14,30:4
14,41:6
14,57:8
14,58:8
14,68:4
14,69:13
15,6:10
15,8:10
15,10:10
15,11:4
15,12:4
15,13:4
15,14:4
15,16:10
15,41:10
15,69:9
15,70:4
16,1:10
16,2:10
16,3:10
16,4:10
16,5:10
16,7:10
16,9:10
16,11:14
16,12:14
16,13:6
16,14:6
16,17:14
16,18:14
16,24:10
16,30:10
16,68:10
16,69:19
16,70:6
17,1:4
17,2:4
17,3:4
17,4:4
17,5:4
17,6:14
17,7:4
17,8:14
17,9:4
17,10:14
17,13:8
17,14:8
17,24:4
17,30:4
17,41:14
17,68:4
17,69:5
17,70:8
18,1:4
18,2:4
18,3:4
18,4:4
18,5:4
18,6:14
18,7:4
18,8:14
18,9:4
18,10:14
18,13:8
18,14:8
18,24:4
18,30:4
18,41:14
18,68:4
18,69:5
18,70:8
19,1:4
19,2:4
19,3:4
19,4:4
19,5:4
19,6:14
19,7:4
19,8:14
19,9:4
19,10:14
19,13:8
19,14:8
19,22:8
19,24:4
19,30:4
19,41:14
19,68:4
19,69:5
19,70:8
20,1:4
20,2:4
20,3:4
20,4:4
20,5:4
20,6:14
20,7:4
20,8:14
20,9:4
20,10:14
20,13:8
20,14:8
20,21:8
20,22:8
20,24:4
20,30:4
20,41:14
20,59:8
20,68:4
20,69:5
20,70:8
21,1:4
21,2:4
21,3:4
21,4:4
21,5:4
21,6:6
21,7:4
21,8:6
21,9:4
21,10:6
21,11:8
21,12:8
21,23:1
21,24:4
21,30:4
21,41:6
21,57:8
21,58:8
21,68:4
21,69:13
22,1:4
22,2:4
22,3:4
22,4:4
22,5:4
22,6:6
22,7:4
22,8:6
22,9:4
22,10:6
22,11:8
22,12:8
22,20:8
22,23:1
22,24:4
22,30:4
22,41:6
22,57:8
22,58:8
22,68:4
22,69:13
23,24:3
23,30:3
23,41:7
23,57:7
23,58:7
23,59:1
23,68:3
23,69:12
23,70:1
24,6:10
24,8:10
24,10:10
24,11:4
24,12:4
24,13:4
24,14:4
24,16:10
24,17:4
24,18:4
24,19:4
24,20:4
24,21:4
24,22:4
24,23:3
24,25:3
24,31:3
24,32:3
24,33:3
24,34:5
24,41:10
24,57:4
24,58:4
24,59:4
24,69:9
24,70:4
25,26:8
25,27:8
25,28:8
25,29:8
25,30:3
25,34:8
25,41:7
25,57:7
25,58:7
25,59:1
25,68:3
25,69:12
25,70:1
26,30:5
26,31:8
26,32:8
26,33:8
26,41:15
26,57:1
26,58:1
26,59:9
26,68:5
26,69:4
26,70:9
27,30:5
27,31:8
27,32:8
27,33:8
27,41:15
27,57:1
27,58:1
27,59:9
27,68:5
27,69:4
27,70:9
28,30:5
28,31:8
28,32:8
28,33:8
28,41:15
28,57:1
28,58:1
28,59:9
28,68:5
28,69:4
28,70:9
29,30:5
29,31:8
29,32:8
29,33:8
29,41:15
29,57:1
29,58:1
29,59:9
29,68:5
29,69:4
29,70:9
30,6:10
30,8:10
30,10:10
30,11:4
30,12:4
30,13:4
30,14:4
30,16:10
30,17:4
30,18:4
30,19:4
30,20:4
30,21:4
30,22:4
30,23:3
30,25:3
30,26:5
30,27:5
30,28:5
30,29:5
30,31:3
30,33:3
30,34:5
30,41:10
30,57:4
30,58:4
30,59:4
30,69:9
30,70:4
31,24:3
31,26:8
31,27:8
31,28:8
31,29:8
31,34:8
31,41:7
31,57:7
31,58:7
31,59:1
31,68:3
31,69:12
31,70:1
32,24:3
32,26:8
32,27:8
32,28:8
32,29:8
32,34:8
32,35:8
32,41:7
32,57:7
32,58:7
32,59:1
32,68:3
32,69:12
32,70:1
33,24:3
33,26:8
33,27:8
33,28:8
33,29:8
33,30:3
33,34:8
33,41:7
33,57:7
33,58:7
33,59:1
33,68:3
33,69:12
33,70:1
34,24:5
34,25:8
34,30:5
34,31:8
34,32:8
34,41:15
34,57:1
34,58:1
34,59:9
34,68:5
34,69:4
34,70:9
35,36:5
35,41:15
35,48:5
35,53:4
35,56:4
35,57:1
35,58:1
35,59:9
35,60:4
35,61:4
35,68:5
35,69:4
35,70:9
36,41:10
36,44:5
36,45:5
36,47:6
36,49:9
36,51:5
36,52:5
36,53:9
36,54:6
36,55:6
36,56:9
36,57:4
36,58:4
36,59:4
36,60:9
36,61:9
36,62:5
36,64:6
36,65:6
36,66:6
36,67:6
36,69:9
36,70:4
37,41:10
37,44:5
37,45:5
37,47:6
37,49:9
37,51:5
37,52:5
37,53:9
37,54:6
37,55:6
37,56:9
37,57:4
37,58:4
37,59:4
37,60:9
37,61:9
37,62:5
37,64:6
37,65:6
37,66:6
37,67:6
37,69:9
37,70:4
38,39:9
38,41:10
38,44:5
38,45:5
38,47:6
38,49:9
38,51:5
38,52:5
38,53:9
38,54:6
38,55:6
38,56:9
38,57:4
38,58:4
38,59:4
38,60:9
38,61:9
38,62:5
38,64:6
38,65:6
38,66:6
38,67:6
38,69:9
38,70:4
39,41:19
39,44:4
39,45:4
39,46:9
39,47:15
39,48:9
39,51:4
39,52:4
39,54:15
39,55:15
39,57:5
39,58:5
39,59:13
39,62:4
39,63:9
39,64:15
39,65:15
39,66:15
39,67:15
39,68:9
39,70:13
40,41:19
40,44:4
40,45:4
40,46:9
40,47:15
40,48:9
40,51:4
40,52:4
40,54:15
40,55:15
40,57:5
40,58:5
40,59:13
40,62:4
40,63:9
40,64:15
40,65:15
40,66:15
40,67:15
40,68:9
40,70:13
41,2:10
41,3:10
41,4:10
41,5:10
41,7:10
41,9:10
41,11:14
41,12:14
41,13:6
41,14:6
41,15:10
41,17:14
41,18:14
41,19:14
41,20:14
41,21:6
41,22:6
41,23:7
41,24:10
41,25:7
41,26:15
41,27:15
41,28:15
41,29:15
41,30:10
41,31:7
41,32:7
41,33:7
41,34:15
41,35:15
41,36:10
41,37:10
41,38:10
41,39:19
41,40:19
41,42:19
41,44:15
41,45:15
41,46:10
41,47:4
41,48:10
41,49:19
41,51:15
41,52:15
41,53:19
41,54:4
41,55:4
41,56:19
41,57:14
41,58:14
41,59:6
41,60:19
41,61:19
41,62:15
41,63:10
41,64:4
41,65:4
41,66:4
41,67:4
41,68:10
41,69:19
41,70:6
42,43:15
42,44:4
42,45:4
42,46:9
42,47:15
42,48:9
42,51:4
42,52:4
42,54:15
42,55:15
42,57:5
42,58:5
42,59:13
42,62:4
42,63:9
42,64:15
42,65:15
42,66:15
42,67:15
42,68:9
42,70:13
43,44:11
43,45:11
43,46:6
43,48:6
43,49:15
43,51:11
43,52:11
43,53:15
43,56:15
43,57:10
43,58:10
43,59:2
43,60:15
43,61:15
43,62:11
43,63:6
43,68:6
43,69:15
43,70:2
44,36:5
44,37:5
44,38:5
44,39:4
44,40:4
44,41:15
44,42:4
44,43:11
44,48:5
44,49:4
44,53:4
44,54:11
44,55:11
44,56:4
44,57:1
44,58:1
44,59:9
44,60:4
44,61:4
44,63:5
44,64:11
44,65:11
44,66:11
44,67:11
44,68:5
44,69:4
44,70:9
45,36:5
45,37:5
45,38:5
45,39:4
45,40:4
45,41:15
45,42:4
45,43:11
45,46:5
45,48:5
45,49:4
45,53:4
45,54:11
45,55:11
45,56:4
45,57:1
45,58:1
45,59:9
45,60:4
45,61:4
45,63:5
45,64:11
45,65:11
45,66:11
45,67:11
45,68:5
45,69:4
45,70:9
46,39:9
46,40:9
46,41:10
46,42:9
46,43:6
46,47:6
46,49:9
46,51:5
46,52:5
46,53:9
46,54:6
46,55:6
46,56:9
46,57:4
46,58:4
46,59:4
46,60:9
46,61:9
46,62:5
46,64:6
46,65:6
46,66:6
46,67:6
46,69:9
46,70:4
47,36:6
47,37:6
47,38:6
47,39:15
47,40:15
47,41:4
47,42:15
47,48:6
47,49:15
47,51:11
47,52:11
47,53:15
47,56:15
47,57:10
47,58:10
47,59:2
47,60:15
47,61:15
47,62:11
47,63:6
47,68:6
47,69:15
47,70:2
48,39:9
48,40:9
48,41:10
48,42:9
48,43:6
48,44:5
48,45:5
48,47:6
48,49:9
48,51:5
48,52:5
48,53:9
48,54:6
48,55:6
48,56:9
48,57:4
48,58:4
48,59:4
48,60:9
48,61:9
48,62:5
48,64:6
48,65:6
48,66:6
48,67:6
48,69:9
48,70:4
49,36:9
49,37:9
49,38:9
49,41:19
49,43:15
49,44:4
49,45:4
49,46:9
49,47:15
49,50:15
49,51:4
49,52:4
49,54:15
49,55:15
49,57:5
49,58:5
49,59:13
49,62:4
49,63:9
49,64:15
49,65:15
49,66:15
49,67:15
49,68:9
49,70:13
50,51:11
50,52:11
50,53:15
50,56:15
50,57:10
50,58:10
50,59:2
50,60:15
50,61:15
50,62:11
50,63:6
50,68:6
50,69:15
50,70:2
51,36:5
51,37:5
51,38:5
51,39:4
51,40:4
51,41:15
51,42:4
51,43:11
51,46:5
51,47:11
51,48:5
51,49:4
51,50:11
51,53:4
51,56:4
51,57:1
51,58:1
51,59:9
51,60:4
51,61:4
51,63:5
51,64:11
51,65:11
51,66:11
51,67:11
51,68:5
51,69:4
51,70:9
52,36:5
52,37:5
52,38:5
52,39:4
52,40:4
52,41:15
52,42:4
52,43:11
52,46:5
52,47:11
52,48:5
52,49:4
52,50:11
52,53:4
52,54:11
52,56:4
52,57:1
52,58:1
52,59:9
52,60:4
52,61:4
52,63:5
52,64:11
52,65:11
52,66:11
52,67:11
52,68:5
52,69:4
52,70:9
53,36:9
53,37:9
53,38:9
53,41:19
53,43:15
53,44:4
53,45:4
53,46:9
53,47:15
53,48:9
53,50:15
53,51:4
53,52:4
53,54:15
53,57:5
53,58:5
53,59:13
53,62:4
53,63:9
53,64:15
53,65:15
53,66:15
53,67:15
53,68:9
53,70:13
54,36:6
54,37:6
54,38:6
54,39:15
54,40:15
54,41:4
54,42:15
54,44:11
54,45:11
54,46:6
54,48:6
54,49:15
54,56:15
54,57:10
54,58:10
54,59:2
54,60:15
54,61:15
54,62:11
54,63:6
54,68:6
54,69:15
54,70:2
55,36:6
55,37:6
55,38:6
55,39:15
55,40:15
55,41:4
55,42:15
55,44:11
55,45:11
55,46:6
55,48:6
55,49:15
55,56:15
55,57:10
55,58:10
55,59:2
55,60:15
55,61:15
55,62:11
55,63:6
55,68:6
55,69:15
55,70:2
56,36:9
56,37:9
56,38:9
56,41:19
56,43:15
56,44:4
56,45:4
56,46:9
56,47:15
56,48:9
56,50:15
56,51:4
56,52:4
56,54:15
56,55:15
56,57:5
56,58:5
56,59:13
56,62:4
56,63:9
56,64:15
56,65:15
56,66:15
56,67:15
56,68:9
56,70:13
57,1:4
57,2:4
57,3:4
57,4:4
57,5:4
57,6:14
57,7:4
57,8:14
57,9:4
57,10:14
57,13:8
57,14:8
57,21:8
57,22:8
57,23:7
57,24:4
57,25:7
57,26:1
57,27:1
57,28:1
57,29:1
57,30:4
57,31:7
57,32:7
57,33:7
57,34:1
57,35:1
57,36:4
57,37:4
57,38:4
57,39:5
57,40:5
57,41:14
57,42:5
57,43:10
57,44:1
57,45:1
57,46:4
57,47:10
57,48:4
57,49:5
57,50:10
57,51:1
57,52:1
57,53:5
57,54:10
57,55:10
57,56:5
57,61:5
57,62:1
57,63:4
57,64:10
57,65:10
57,66:10
57,67:10
57,68:4
57,69:5
57,70:8
58,1:4
58,2:4
58,3:4
58,4:4
58,5:4
58,6:14
58,7:4
58,8:14
58,9:4
58,10:14
58,13:8
58,14:8
58,21:8
58,22:8
58,23:7
58,24:4
58,25:7
58,26:1
58,27:1
58,28:1
58,29:1
58,30:4
58,31:7
58,32:7
58,33:7
58,34:1
58,35:1
58,36:4
58,37:4
58,38:4
58,39:5
58,40:5
58,41:14
58,42:5
58,43:10
58,44:1
58,45:1
58,46:4
58,47:10
58,48:4
58,49:5
58,50:10
58,51:1
58,52:1
58,53:5
58,54:10
58,55:10
58,56:5
58,59:8
58,61:5
58,62:1
58,63:4
58,64:10
58,65:10
58,66:10
58,67:10
58,68:4
58,69:5
58,70:8
59,1:4
59,2:4
59,3:4
59,4:4
59,5:4
59,6:6
59,7:4
59,8:6
59,9:4
59,10:6
59,11:8
59,12:8
59,20:8
59,23:1
59,24:4
59,25:1
59,26:9
59,27:9
59,28:9
59,29:9
59,30:4
59,31:1
59,32:1
59,33:1
59,34:9
59,35:9
59,36:4
59,37:4
59,38:4
59,39:13
59,40:13
59,41:6
59,42:13
59,43:2
59,44:9
59,45:9
59,46:4
59,47:2
59,48:4
59,49:13
59,50:2
59,51:9
59,52:9
59,53:13
59,54:2
59,55:2
59,56:13
59,60:13
59,61:13
59,62:9
59,63:4
59,64:2
59,65:2
59,66:2
59,67:2
59,68:4
59,69:13
60,36:9
60,37:9
60,38:9
60,41:19
60,43:15
60,44:4
60,45:4
60,46:9
60,47:15
60,48:9
60,50:15
60,51:4
60,52:4
60,54:15
60,55:15
60,62:4
60,63:9
60,64:15
60,65:15
60,66:15
60,67:15
60,68:9
60,70:13
61,36:9
61,37:9
61,38:9
61,41:19
61,43:15
61,44:4
61,45:4
61,46:9
61,47:15
61,48:9
61,50:15
61,51:4
61,52:4
61,54:15
61,55:15
61,57:5
61,58:5
61,59:13
61,62:4
61,63:9
61,64:15
61,65:15
61,66:15
61,67:15
61,68:9
61,70:13
62,36:5
62,37:5
62,38:5
62,39:4
62,40:4
62,41:15
62,42:4
62,43:11
62,46:5
62,47:11
62,48:5
62,49:4
62,50:11
62,53:4
62,54:11
62,55:11
62,56:4
62,57:1
62,58:1
62,59:9
62,60:4
62,61:4
62,63:5
62,68:5
62,69:4
62,70:9
63,39:9
63,40:9
63,41:10
63,42:9
63,43:6
63,44:5
63,45:5
63,47:6
63,49:9
63,50:6
63,51:5
63,52:5
63,53:9
63,54:6
63,55:6
63,56:9
63,57:4
63,58:4
63,59:4
63,60:9
63,61:9
63,64:6
63,69:9
63,70:4
64,36:6
64,37:6
64,38:6
64,39:15
64,40:15
64,41:4
64,42:15
64,44:11
64,45:11
64,46:6
64,48:6
64,49:15
64,51:11
64,52:11
64,53:15
64,56:15
64,57:10
64,58:10
64,59:2
64,60:15
64,61:15
64,68:6
64,69:15
64,70:2
65,36:6
65,37:6
65,38:6
65,39:15
65,40:15
65,41:4
65,42:15
65,44:11
65,45:11
65,46:6
65,48:6
65,49:15
65,51:11
65,52:11
65,53:15
65,56:15
65,57:10
65,58:10
65,59:2
65,60:15
65,68:6
65,69:15
65,70:2
66,36:6
66,37:6
66,38:6
66,39:15
66,40:15
66,41:4
66,42:15
66,44:11
66,45:11
66,46:6
66,48:6
66,49:15
66,51:11
66,52:11
66,53:15
66,56:15
66,57:10
66,58:10
66,59:2
66,60:15
66,61:15
66,68:6
66,69:15
66,70:2
67,36:6
67,37:6
67,38:6
67,39:15
67,40:15
67,41:4
67,42:15
67,44:11
67,45:11
67,46:6
67,48:6
67,49:15
67,51:11
67,52:11
67,53:15
67,56:15
67,57:10
67,58:10
67,59:2
67,60:15
67,61:15
67,68:6
67,69:15
67,70:2
68,6:10
68,8:10
68,10:10
68,11:4
68,12:4
68,13:4
68,14:4
68,16:10
68,17:4
68,18:4
68,19:4
68,20:4
68,21:4
68,22:4
68,23:3
68,25:3
68,26:5
68,27:5
68,28:5
68,29:5
68,31:3
68,32:3
68,33:3
68,34:5
68,35:5
68,39:9
68,40:9
68,41:10
68,42:9
68,43:6
68,44:5
68,45:5
68,47:6
68,49:9
68,50:6
68,51:5
68,52:5
68,53:9
68,54:6
68,55:6
68,56:9
68,57:4
68,58:4
68,59:4
68,60:9
68,61:9
68,62:5
68,64:6
68,65:6
68,66:6
68,67:6
68,69:9
68,70:4
69,2:9
69,3:9
69,4:9
69,5:9
69,6:19
69,7:9
69,8:19
69,9:9
69,10:19
69,11:5
69,12:5
69,13:13
69,14:13
69,15:9
69,16:19
69,17:5
69,18:5
69,19:5
69,20:5
69,21:13
69,22:13
69,23:12
69,24:9
69,25:12
69,26:4
69,27:4
69,28:4
69,29:4
69,30:9
69,31:12
69,32:12
69,33:12
69,34:4
69,35:4
69,36:9
69,37:9
69,38:9
69,41:19
69,43:15
69,44:4
69,45:4
69,46:9
69,47:15
69,48:9
69,50:15
69,51:4
69,52:4
69,54:15
69,55:15
69,57:5
69,58:5
69,59:13
69,62:4
69,63:9
69,64:15
69,65:15
69,66:15
69,67:15
69,68:9
69,70:13
70,2:4
70,3:4
70,4:4
70,5:4
70,6:6
70,7:4
70,8:6
70,9:4
70,10:6
70,11:8
70,12:8
70,15:4
70,16:6
70,17:8
70,18:8
70,19:8
70,20:8
70,23:1
70,24:4
70,25:1
70,26:9
70,27:9
70,28:9
70,29:9
70,30:4
70,31:1
70,32:1
70,33:1
70,34:9
70,35:9
70,36:4
70,37:4
70,38:4
70,39:13
70,40:13
70,41:6
70,42:13
70,43:2
70,44:9
70,45:9
70,46:4
70,47:2
70,48:4
70,49:13
70,50:2
70,51:9
70,52:9
70,53:13
70,54:2
70,55:2
70,56:13
70,57:8
70,58:8
70,60:13
70,61:13
70,62:9
70,63:4
70,64:2
70,65:2
70,66:2
70,67:2
70,68:4
70,69:13

<setup times backward>
1,11:4
1,17:4
1,18:4
1,19:4
1,20:4
1,57:4
1,58:4
2,11:4
2,17:4
2,18:4
2,19:4
2,20:4
2,57:4
2,58:4
2,69:9
3,11:4
3,17:4
3,18:4
3,19:4
3,20:4
3,57:4
3,58:4
3,69:9
4,11:4
4,17:4
4,18:4
4,19:4
4,20:4
4,57:4
4,58:4
4,69:9
5,11:4
5,17:4
5,18:4
5,19:4
5,20:4
5,57:4
5,58:4
5,69:9
6,1:10
6,2:10
6,3:10
6,4:10
6,5:10
6,7:10
6,9:10
6,11:14
6,15:10
6,17:14
6,18:14
6,19:14
6,20:14
6,21:6
6,22:6
6,24:10
6,30:10
6,57:14
6,58:14
6,59:6
6,68:10
6,69:19
6,70:6
7,11:4
7,17:4
7,18:4
7,19:4
7,20:4
7,57:4
7,58:4
7,69:9
8,1:10
8,2:10
8,3:10
8,4:10
8,5:10
8,7:10
8,9:10
8,11:14
8,15:10
8,17:14
8,18:14
8,19:14
8,20:14
8,21:6
8,22:6
8,24:10
8,30:10
8,57:14
8,58:14
8,59:6
8,68:10
8,69:19
8,70:6
9,17:4
9,18:4
9,19:4
9,20:4
9,57:4
9,58:4
9,69:9
10,1:10
10,2:10
10,3:10
10,4:10
10,5:10
10,7:10
10,9:10
10,15:10
10,17:14
10,18:14
10,19:14
10,20:14
10,21:6
10,22:6
10,24:10
10,30:10
10,57:14
10,58:14
10,59:6
10,68:10
10,69:19
10,70:6
11,69:5
12,69:5
13,1:4
13,2:4
13,3:4
13,4:4
13,5:4
13,7:4
13,9:4
13,11:8
13,12:8
13,15:4
13,17:8
13,18:8
13,19:8
13,20:8
13,24:4
13,30:4
13,57:8
13,58:8
13,68:4
13,69:13
14,1:4
14,2:4
14,3:4
14,4:4
14,5:4
14,7:4
14,9:4
14,11:8
14,12:8
14,15:4
14,17:8
14,18:8
14,19:8
14,20:8
14,24:4
14,30:4
14,57:8
14,58:8
14,68:4
14,69:13
15,11:4
15,12:4
15,69:9
16,1:10
16,2:10
16,3:10
16,4:10
16,5:10
16,7:10
16,9:10
16,11:14
16,12:14
16,13:6
16,14:6
16,15:10
16,24:10
16,30:10
16,68:10
16,69:19
16,70:6
17,69:5
18,69:5
19,69:5
20,69:5
21,1:4
21,2:4
21,3:4
21,4:4
21,5:4
21,7:4
21,9:4
21,11:8
21,12:8
21,15:4
21,17:8
21,18:8
21,19:8
21,20:8
21,24:4
21,30:4
21,57:8
21,58:8
21,68:4
21,69:13
22,1:4
22,2:4
22,3:4
22,4:4
22,5:4
22,7:4
22,9:4
22,11:8
22,12:8
22,15:4
22,17:8
22,18:8
22,19:8
22,20:8
22,24:4
22,30:4
22,57:8
22,58:8
22,68:4
22,69:13
23,1:3
23,2:3
23,3:3
23,4:3
23,5:3
23,7:3
23,9:3
23,11:7
23,12:7
23,15:3
23,17:7
23,18:7
23,19:7
23,20:7
23,24:3
23,30:3
23,57:7
23,58:7
23,68:3
23,69:12
24,11:4
24,12:4
24,17:4
24,18:4
24,19:4
24,20:4
24,34:5
24,57:4
24,58:4
24,69:9
25,1:3
25,2:3
25,3:3
25,4:3
25,5:3
25,7:3
25,9:3
25,11:7
25,12:7
25,15:3
25,17:7
25,18:7
25,19:7
25,20:7
25,24:3
25,30:3
25,34:8
25,57:7
25,58:7
25,68:3
25,69:12
26,69:4
27,69:4
28,69:4
29,69:4
30,11:4
30,12:4
30,17:4
30,18:4
30,19:4
30,20:4
30,26:5
30,27:5
30,28:5
30,29:5
30,34:5
30,57:4
30,58:4
30,69:9
31,1:3
31,2:3
31,3:3
31,4:3
31,5:3
31,7:3
31,9:3
31,11:7
31,12:7
31,15:3
31,17:7
31,18:7
31,19:7
31,20:7
31,24:3
31,26:8
31,27:8
31,28:8
31,29:8
31,30:3
31,34:8
31,57:7
31,58:7
31,68:3
31,69:12
32,1:3
32,2:3
32,3:3
32,4:3
32,5:3
32,7:3
32,9:3
32,11:7
32,12:7
32,15:3
32,17:7
32,18:7
32,19:7
32,20:7
32,24:3
32,26:8
32,27:8
32,28:8
32,29:8
32,30:3
32,34:8
32,57:7
32,58:7
32,68:3
32,69:12
33,1:3
33,2:3
33,3:3
33,4:3
33,5:3
33,7:3
33,9:3
33,11:7
33,12:7
33,15:3
33,17:7
33,18:7
33,19:7
33,20:7
33,24:3
33,26:8
33,27:8
33,28:8
33,29:8
33,30:3
33,57:7
33,58:7
33,68:3
33,69:12
34,69:4
35,69:4
36,11:4
36,12:4
36,17:4
36,18:4
36,19:4
36,20:4
36,26:5
36,27:5
36,28:5
36,29:5
36,34:5
36,35:5
36,44:5
36,45:5
36,49:9
36,51:5
36,52:5
36,53:9
36,56:9
36,57:4
36,58:4
36,60:9
36,61:9
36,62:5
36,69:9
37,11:4
37,12:4
37,17:4
37,18:4
37,19:4
37,20:4
37,26:5
37,27:5
37,28:5
37,29:5
37,34:5
37,35:5
37,44:5
37,45:5
37,49:9
37,51:5
37,52:5
37,53:9
37,56:9
37,57:4
37,58:4
37,60:9
37,61:9
37,62:5
37,69:9
38,11:4
38,12:4
38,17:4
38,18:4
38,19:4
38,20:4
38,26:5
38,27:5
38,28:5
38,29:5
38,34:5
38,35:5
38,44:5
38,45:5
38,49:9
38,51:5
38,52:5
38,53:9
38,56:9
38,57:4
38,58:4
38,60:9
38,61:9
38,62:5
38,69:9
41,1:10
41,2:10
41,3:10
41,4:10
41,5:10
41,7:10
41,9:10
41,11:14
41,12:14
41,13:6
41,14:6
41,15:10
41,17:14
41,18:14
41,19:14
41,20:14
41,21:6
41,22:6
41,23:7
41,24:10
41,25:7
41,26:15
41,27:15
41,28:15
41,29:15
41,30:10
41,31:7
41,32:7
41,33:7
41,34:15
41,35:15
41,36:10
41,37:10
41,38:10
41,39:19
41,40:19
41,44:15
41,45:15
41,46:10
41,47:4
41,48:10
41,49:19
41,51:15
41,52:15
41,53:19
41,54:4
41,55:4
41,56:19
41,57:14
41,58:14
41,59:6
41,60:19
41,61:19
41,62:15
41,63:10
41,64:4
41,65:4
41,66:4
41,67:4
41,68:10
41,69:19
41,70:6
43,1:6
43,2:6
43,3:6
43,4:6
43,5:6
43,7:6
43,9:6
43,11:10
43,12:10
43,13:2
43,14:2
43,15:6
43,17:10
43,18:10
43,19:10
43,20:10
43,21:2
43,22:2
43,23:3
43,24:6
43,25:3
43,26:11
43,27:11
43,28:11
43,29:11
43,30:6
43,31:3
43,32:3
43,33:3
43,34:11
43,35:11
43,36:6
43,37:6
43,38:6
43,39:15
43,40:15
43,42:15
43,44:11
43,45:11
43,46:6
43,48:6
43,49:15
43,51:11
43,52:11
43,53:15
43,56:15
43,57:10
43,58:10
43,59:2
43,60:15
43,61:15
43,62:11
43,63:6
43,68:6
43,69:15
43,70:2
44,39:4
44,40:4
44,42:4
44,49:4
44,53:4
44,56:4
44,60:4
44,61:4
44,69:4
45,39:4
45,40:4
45,42:4
45,49:4
45,53:4
45,56:4
45,60:4
45,61:4
45,69:4
46,11:4
46,12:4
46,17:4
46,18:4
46,19:4
46,20:4
46,26:5
46,27:5
46,28:5
46,29:5
46,34:5
46,35:5
46,39:9
46,40:9
46,42:9
46,44:5
46,45:5
46,49:9
46,51:5
46,52:5
46,53:9
46,56:9
46,57:4
46,58:4
46,60:9
46,61:9
46,62:5
46,69:9
47,1:6
47,2:6
47,3:6
47,4:6
47,5:6
47,7:6
47,9:6
47,11:10
47,12:10
47,13:2
47,14:2
47,15:6
47,17:10
47,18:10
47,19:10
47,20:10
47,21:2
47,22:2
47,23:3
47,24:6
47,25:3
47,26:11
47,27:11
47,28:11
47,29:11
47,30:6
47,31:3
47,32:3
47,33:3
47,34:11
47,35:11
47,36:6
47,37:6
47,38:6
47,39:15
47,40:15
47,42:15
47,44:11
47,45:11
47,46:6
47,48:6
47,49:15
47,51:11
47,52:11
47,53:15
47,56:15
47,57:10
47,58:10
47,59:2
47,60:15
47,61:15
47,62:11
47,63:6
47,68:6
47,69:15
47,70:2
48,11:4
48,12:4
48,17:4
48,18:4
48,19:4
48,20:4
48,26:5
48,27:5
48,28:5
48,29:5
48,34:5
48,35:5
48,39:9
48,40:9
48,42:9
48,44:5
48,45:5
48,51:5
48,52:5
48,53:9
48,56:9
48,57:4
48,58:4
48,60:9
48,61:9
48,62:5
48,69:9
50,1:6
50,2:6
50,3:6
50,4:6
50,5:6
50,7:6
50,9:6
50,11:10
50,12:10
50,13:2
50,14:2
50,15:6
50,17:10
50,18:10
50,19:10
50,20:10
50,21:2
50,22:2
50,23:3
50,24:6
50,25:3
50,26:11
50,27:11
50,28:11
50,29:11
50,30:6
50,31:3
50,32:3
50,33:3
50,34:11
50,35:11
50,36:6
50,37:6
50,38:6
50,39:15
50,40:15
50,42:15
50,44:11
50,45:11
50,46:6
50,48:6
50,49:15
50,51:11
50,52:11
50,53:15
50,56:15
50,57:10
50,58:10
50,59:2
50,60:15
50,61:15
50,62:11
50,63:6
50,68:6
50,69:15
50,70:2
51,39:4
51,40:4
51,42:4
51,49:4
51,53:4
51,56:4
51,60:4
51,61:4
51,69:4
52,39:4
52,40:4
52,42:4
52,49:4
52,53:4
52,56:4
52,60:4
52,61:4
52,69:4
54,1:6
54,2:6
54,3:6
54,4:6
54,5:6
54,7:6
54,9:6
54,11:10
54,12:10
54,13:2
54,14:2
54,15:6
54,17:10
54,18:10
54,19:10
54,20:10
54,21:2
54,22:2
54,23:3
54,24:6
54,25:3
54,26:11
54,27:11
54,28:11
54,29:11
54,30:6
54,31:3
54,32:3
54,33:3
54,34:11
54,35:11
54,36:6
54,37:6
54,38:6
54,39:15
54,40:15
54,42:15
54,44:11
54,45:11
54,46:6
54,48:6
54,49:15
54,51:11
54,52:11
54,53:15
54,56:15
54,57:10
54,58:10
54,59:2
54,60:15
54,61:15
54,62:11
54,63:6
54,68:6
54,69:15
54,70:2
55,1:6
55,2:6
55,3:6
55,4:6
55,5:6
55,7:6
55,9:6
55,11:10
55,12:10
55,13:2
55,14:2
55,15:6
55,17:10
55,18:10
55,19:10
55,20:10
55,21:2
55,22:2
55,23:3
55,24:6
55,25:3
55,26:11
55,27:11
55,28:11
55,29:11
55,30:6
55,31:3
55,32:3
55,33:3
55,34:11
55,35:11
55,36:6
55,37:6
55,38:6
55,39:15
55,40:15
55,42:15
55,44:11
55,45:11
55,46:6
55,48:6
55,49:15
55,51:11
55,52:11
55,53:15
55,56:15
55,57:10
55,58:10
55,59:2
55,60:15
55,61:15
55,62:11
55,63:6
55,68:6
55,69:15
55,70:2
57,26:1
57,27:1
57,28:1
57,29:1
57,34:1
57,35:1
57,39:5
57,40:5
57,42:5
57,44:1
57,45:1
57,49:5
57,51:1
57,52:1
57,53:5
57,56:5
57,61:5
57,62:1
57,69:5
58,26:1
58,27:1
58,28:1
58,29:1
58,34:1
58,35:1
58,39:5
58,40:5
58,42:5
58,44:1
58,45:1
58,49:5
58,51:1
58,52:1
58,53:5
58,56:5
58,61:5
58,62:1
58,69:5
59,1:4
59,2:4
59,3:4
59,4:4
59,5:4
59,7:4
59,9:4
59,11:8
59,12:8
59,15:4
59,17:8
59,18:8
59,19:8
59,20:8
59,23:1
59,24:4
59,25:1
59,26:9
59,27:9
59,28:9
59,29:9
59,30:4
59,31:1
59,32:1
59,33:1
59,34:9
59,35:9
59,36:4
59,37:4
59,38:4
59,39:13
59,40:13
59,42:13
59,44:9
59,45:9
59,46:4
59,48:4
59,49:13
59,51:9
59,52:9
59,53:13
59,56:13
59,57:8
59,58:8
59,61:13
59,62:9
59,63:4
59,68:4
59,69:13
62,39:4
62,40:4
62,42:4
62,49:4
62,53:4
62,56:4
62,60:4
62,61:4
62,69:4
63,11:4
63,12:4
63,17:4
63,18:4
63,19:4
63,20:4
63,26:5
63,27:5
63,28:5
63,29:5
63,34:5
63,35:5
63,39:9
63,40:9
63,42:9
63,44:5
63,45:5
63,49:9
63,51:5
63,52:5
63,53:9
63,56:9
63,57:4
63,58:4
63,60:9
63,61:9
63,62:5
63,69:9
64,1:6
64,2:6
64,3:6
64,4:6
64,5:6
64,7:6
64,9:6
64,11:10
64,12:10
64,13:2
64,14:2
64,15:6
64,17:10
64,18:10
64,19:10
64,20:10
64,21:2
64,22:2
64,23:3
64,24:6
64,25:3
64,26:11
64,27:11
64,28:11
64,29:11
64,30:6
64,31:3
64,32:3
64,33:3
64,34:11
64,35:11
64,36:6
64,37:6
64,38:6
64,39:15
64,40:15
64,42:15
64,44:11
64,45:11
64,46:6
64,48:6
64,49:15
64,51:11
64,52:11
64,53:15
64,56:15
64,57:10
64,58:10
64,59:2
64,60:15
64,61:15
64,62:11
64,63:6
64,68:6
64,69:15
64,70:2
65,1:6
65,2:6
65,3:6
65,4:6
65,5:6
65,7:6
65,9:6
65,11:10
65,12:10
65,13:2
65,14:2
65,15:6
65,17:10
65,18:10
65,19:10
65,20:10
65,21:2
65,22:2
65,23:3
65,24:6
65,25:3
65,26:11
65,27:11
65,28:11
65,29:11
65,30:6
65,31:3
65,32:3
65,33:3
65,34:11
65,35:11
65,36:6
65,37:6
65,38:6
65,39:15
65,40:15
65,42:15
65,44:11
65,45:11
65,46:6
65,48:6
65,49:15
65,51:11
65,52:11
65,53:15
65,56:15
65,57:10
65,58:10
65,59:2
65,60:15
65,61:15
65,62:11
65,63:6
65,68:6
65,69:15
65,70:2
66,1:6
66,2:6
66,3:6
66,4:6
66,5:6
66,7:6
66,9:6
66,11:10
66,12:10
66,13:2
66,14:2
66,15:6
66,17:10
66,18:10
66,19:10
66,20:10
66,21:2
66,22:2
66,23:3
66,24:6
66,25:3
66,26:11
66,27:11
66,28:11
66,29:11
66,30:6
66,31:3
66,32:3
66,33:3
66,34:11
66,35:11
66,36:6
66,37:6
66,38:6
66,39:15
66,40:15
66,42:15
66,44:11
66,45:11
66,46:6
66,48:6
66,49:15
66,51:11
66,52:11
66,53:15
66,56:15
66,57:10
66,58:10
66,59:2
66,60:15
66,61:15
66,62:11
66,63:6
66,68:6
66,69:15
66,70:2
67,1:6
67,2:6
67,3:6
67,4:6
67,5:6
67,7:6
67,9:6
67,11:10
67,12:10
67,13:2
67,14:2
67,15:6
67,17:10
67,18:10
67,19:10
67,20:10
67,21:2
67,22:2
67,23:3
67,24:6
67,25:3
67,26:11
67,27:11
67,28:11
67,29:11
67,30:6
67,31:3
67,32:3
67,33:3
67,34:11
67,35:11
67,36:6
67,37:6
67,38:6
67,39:15
67,40:15
67,42:15
67,44:11
67,45:11
67,46:6
67,48:6
67,49:15
67,51:11
67,52:11
67,53:15
67,56:15
67,57:10
67,58:10
67,59:2
67,60:15
67,61:15
67,62:11
67,63:6
67,68:6
67,69:15
67,70:2
68,11:4
68,12:4
68,17:4
68,18:4
68,19:4
68,20:4
68,26:5
68,27:5
68,28:5
68,29:5
68,34:5
68,35:5
68,39:9
68,40:9
68,42:9
68,44:5
68,45:5
68,49:9
68,51:5
68,52:5
68,53:9
68,56:9
68,57:4
68,58:4
68,60:9
68,61:9
68,62:5
68,69:9
70,1:4
70,2:4
70,3:4
70,4:4
70,5:4
70,7:4
70,9:4
70,11:8
70,12:8
70,15:4
70,17:8
70,18:8
70,19:8
70,20:8
70,23:1
70,24:4
70,25:1
70,26:9
70,27:9
70,28:9
70,29:9
70,30:4
70,31:1
70,32:1
70,33:1
70,34:9
70,35:9
70,36:4
70,37:4
70,38:4
70,39:13
70,40:13
70,42:13
70,44:9
70,45:9
70,46:4
70,48:4
70,49:13
70,51:9
70,52:9
70,53:13
70,56:13
70,57:8
70,58:8
70,60:13
70,61:13
70,62:9
70,63:4
70,68:4
70,69:13

<end>

<optimal SALBP-1 value>
9


<rand seed>
467321153

<Lower Bounds>
Lm1=9
Lms1=9
Lm2=0
Lm3=2
Lm4=9
Best=9

<Optimal Stations (Iterations: 10)>
10
